10
0, 286, 364, 403, 241, 572, 348, 693, 515, 243
286, 0, 465, 638, 448, 835, 590, 940, 737, 95
364, 465, 0, 289, 179, 808, 652, 557, 337, 370
403, 638, 289, 0, 190, 600, 526, 302, 115, 555
241, 448, 179, 190, 0, 628, 478, 492, 289, 365
572, 835, 808, 600, 628, 0, 252, 684, 678, 813
348, 590, 652, 526, 478, 252, 0, 717, 631, 578
693, 940, 557, 302, 492, 684, 717, 0, 219, 857
515, 737, 337, 115, 289, 678, 631, 219, 0, 650
243, 95, 370, 555, 365, 813, 578, 857, 650, 0
